src/.liquid/flycheck_01-basic.lhs.fqout.smt2
(set-option :auto-config false)
(set-option :model true)
(set-option :model.partial false)
(set-option :smt.mbqi false)
(define-sort SMT_Elt () Int)
(define-sort SMT_Set () (Array SMT_Elt Bool))
(define-fun smt_set_emp () SMT_Set ((as const SMT_Set) false))
(define-fun smt_set_mem ((x SMT_Elt) (s SMT_Set)) Bool (select s x))
(define-fun smt_set_add ((s SMT_Set) (x SMT_Elt)) SMT_Set (store s x true))
(define-fun smt_set_cup ((s1 SMT_Set) (s2 SMT_Set)) SMT_Set ((_ map or) s1 s2))
(define-fun smt_set_cap ((s1 SMT_Set) (s2 SMT_Set)) SMT_Set ((_ map and) s1 s2))
(define-fun smt_set_com ((s SMT_Set)) SMT_Set ((_ map not) s))
(define-fun smt_set_dif ((s1 SMT_Set) (s2 SMT_Set)) SMT_Set (smt_set_cap s1 (smt_set_com s2)))
(define-fun smt_set_sub ((s1 SMT_Set) (s2 SMT_Set)) Bool (= smt_set_emp (smt_set_dif s1 s2)))
(declare-fun z3v77 () Int)
(declare-fun z3v78 () Int)
(assert (distinct z3v77 z3v78))
(declare-fun z3v79 () Int)
(declare-fun z3v80 () Int)
(declare-fun z3f81 (Int) Bool)
(declare-fun z3v82 () Int)
(declare-fun z3v83 () Int)
(declare-fun z3v84 () Int)
(declare-fun z3v85 () Int)
(declare-fun z3v86 () Int)
(declare-fun z3v87 () Int)
(declare-fun z3v88 () Int)
(declare-fun z3v89 () Int)
(declare-fun z3v90 () Int)
(declare-fun z3v91 () Int)
(declare-fun z3v92 () Int)
(declare-fun z3v93 () Int)
(declare-fun z3v94 () Int)
(declare-fun z3v95 () Int)
(declare-fun z3f96 (Int) Int)
(declare-fun z3v97 () Int)
(declare-fun z3v98 () Int)
(declare-fun z3v99 () Int)
(push 1)
(assert true)
(assert (= z3v99 z3v89))
(assert (and (not (z3f81 z3v80)) (not (z3f81 z3v80)) (= z3v80 z3v82) (= (z3f81 z3v80) (<  z3v84 z3v83)) (= (z3f81 z3v82) (<  z3v84 z3v83)) (= z3v84 0) (<= 0 z3v85) (<  z3v85 100) (= (mod z3v85 2) 0) (= (mod z3v86 2) 0) (>= z3v87 0) (= z3v88 0) (= z3v90 z3v89) (= z3v91 0) (not (= z3v92 0)) (not (= z3v93 0)) (not (= z3v94 0)) (z3f81 z3v77) (= (z3f96 z3v95) z3v95) (= (z3f96 z3v97) z3v97) (not (z3f81 z3v78)) (= (z3f96 z3v98) z3v98)))
(push 1)
(assert (not (<  z3v99 z3v89)))
(check-sat)
(pop 1)
(push 1)
(assert (not (not (= z3v99 z3v89))))
(check-sat)
(pop 1)
(push 1)
(assert (not (>  z3v99 z3v89)))
(check-sat)
(pop 1)
(push 1)
(assert (not (>= z3v99 z3v89)))
(check-sat)
(pop 1)
(push 1)
(assert (not (<= z3v99 z3v89)))
(check-sat)
(pop 1)
(pop 1)
(declare-fun z3v100 () Int)
(declare-fun z3v101 () Int)
(declare-fun z3v102 () Int)
(declare-fun z3v103 () Int)
(declare-fun z3v104 () Int)
(declare-fun z3v105 () Int)
(push 1)
(assert true)
(assert (= z3v105 z3v89))
(assert (and (not (= z3v100 0)) (= z3v100 z3v101) (= z3v102 z3v101) (= z3v102 z3v101) (= z3v102 z3v103) (<= 0 z3v85) (<  z3v85 100) (= (mod z3v85 2) 0) (= (mod z3v86 2) 0) (>= z3v87 0) (= z3v88 0) (= z3v104 z3v89) (= z3v91 0) (not (= z3v92 0)) (not (= z3v93 0)) (not (= z3v94 0)) (z3f81 z3v77) (= (z3f96 z3v95) z3v95) (= (z3f96 z3v97) z3v97) (not (z3f81 z3v78)) (= (z3f96 z3v98) z3v98)))
(push 1)
(assert (not (<  z3v105 z3v89)))
(check-sat)
(pop 1)
(push 1)
(assert (not (not (= z3v105 z3v89))))
(check-sat)
(pop 1)
(push 1)
(assert (not (>  z3v105 z3v89)))
(check-sat)
(pop 1)
(push 1)
(assert (not (>= z3v105 z3v89)))
(check-sat)
(pop 1)
(push 1)
(assert (not (<= z3v105 z3v89)))
(check-sat)
(pop 1)
(pop 1)
(declare-fun z3v106 () Int)
(declare-fun z3v107 () Int)
(declare-fun z3v108 () Int)
(declare-fun z3v109 () Int)
(push 1)
(assert true)
(assert (= z3v109 (- z3v107 z3v83)))
(assert (and (= z3v107 0) (not (z3f81 z3v80)) (not (z3f81 z3v80)) (= z3v80 z3v82) (= (z3f81 z3v80) (<  z3v84 z3v83)) (= (z3f81 z3v82) (<  z3v84 z3v83)) (= z3v84 0) (<= 0 z3v85) (<  z3v85 100) (= (mod z3v85 2) 0) (= (mod z3v86 2) 0) (>= z3v87 0) (= z3v88 0) (= z3v108 (- z3v107 z3v83)) (= z3v91 0) (not (= z3v92 0)) (not (= z3v93 0)) (not (= z3v94 0)) (z3f81 z3v77) (= (z3f96 z3v95) z3v95) (= (z3f96 z3v97) z3v97) (not (z3f81 z3v78)) (= (z3f96 z3v98) z3v98)))
(assert (= z3v106 z3v89))
(assert (>= z3v106 z3v89))
(assert (<= z3v106 z3v89))
(declare-fun z3v110 () Int)
(push 1)
(assert (not (= z3v109 1)))
(check-sat)
(pop 1)
(push 1)
(assert (not (<= z3v109 0)))
(check-sat)
(pop 1)
(push 1)
(assert (not (>  z3v109 0)))
(check-sat)
(pop 1)
(push 1)
(assert (not (= z3v109 0)))
(check-sat)
(pop 1)
(push 1)
(assert (not (>= z3v109 0)))
(check-sat)
(pop 1)
(push 1)
(assert (not (not (= z3v109 0))))
(check-sat)
(pop 1)
(push 1)
(assert (not (<  z3v109 0)))
(check-sat)
(pop 1)
(push 1)
(assert (not (>  z3v109 z3v83)))
(check-sat)
(pop 1)
(push 1)
(assert (not (>  z3v109 z3v84)))
(check-sat)
(pop 1)
(push 1)
(assert (not (>  z3v109 z3v110)))
(check-sat)
(pop 1)
(push 1)
(assert (not (>  z3v109 z3v85)))
(check-sat)
(pop 1)
(push 1)
(assert (not (>  z3v109 z3v86)))
(check-sat)
(pop 1)
(push 1)
(assert (not (>  z3v109 z3v87)))
(check-sat)
(pop 1)
(push 1)
(assert (not (>  z3v109 z3v88)))
(check-sat)
(pop 1)
(push 1)
(assert (not (>  z3v109 z3v91)))
(check-sat)
(pop 1)
(push 1)
(assert (not (>  z3v109 z3v92)))
(check-sat)
(pop 1)
(push 1)
(assert (not (>  z3v109 z3v93)))
(check-sat)
(pop 1)
(push 1)
(assert (not (>  z3v109 z3v94)))
(check-sat)
(pop 1)
(push 1)
(assert (not (<  z3v109 z3v83)))
(check-sat)
(pop 1)
(push 1)
(assert (not (<  z3v109 z3v84)))
(check-sat)
(pop 1)
(push 1)
(assert (not (<  z3v109 z3v110)))
(check-sat)
(pop 1)
(push 1)
(assert (not (<  z3v109 z3v85)))
(check-sat)
(pop 1)
(push 1)
(assert (not (<  z3v109 z3v86)))
(check-sat)
(pop 1)
(push 1)
(assert (not (<  z3v109 z3v87)))
(check-sat)
(pop 1)
(push 1)
(assert (not (<  z3v109 z3v88)))
(check-sat)
(pop 1)
(push 1)
(assert (not (<  z3v109 z3v91)))
(check-sat)
(pop 1)
(push 1)
(assert (not (<  z3v109 z3v92)))
(check-sat)
(pop 1)
(push 1)
(assert (not (<  z3v109 z3v93)))
(check-sat)
(pop 1)
(push 1)
(assert (not (<  z3v109 z3v94)))
(check-sat)
(pop 1)
(push 1)
(assert (not (not (= z3v109 z3v83))))
(check-sat)
(pop 1)
(push 1)
(assert (not (not (= z3v109 z3v84))))
(check-sat)
(pop 1)
(push 1)
(assert (not (not (= z3v109 z3v110))))
(check-sat)
(pop 1)
(push 1)
(assert (not (not (= z3v109 z3v85))))
(check-sat)
(pop 1)
(push 1)
(assert (not (not (= z3v109 z3v86))))
(check-sat)
(pop 1)
(push 1)
(assert (not (not (= z3v109 z3v87))))
(check-sat)
(pop 1)
(push 1)
(assert (not (not (= z3v109 z3v88))))
(check-sat)
(pop 1)
(push 1)
(assert (not (not (= z3v109 z3v91))))
(check-sat)
(pop 1)
(push 1)
(assert (not (not (= z3v109 z3v92))))
(check-sat)
(pop 1)
(push 1)
(assert (not (not (= z3v109 z3v93))))
(check-sat)
(pop 1)
(push 1)
(assert (not (not (= z3v109 z3v94))))
(check-sat)
(pop 1)
(push 1)
(assert (not (>  z3v109 z3v83)))
(check-sat)
(pop 1)
(push 1)
(assert (not (>  z3v109 z3v84)))
(check-sat)
(pop 1)
(push 1)
(assert (not (>  z3v109 z3v110)))
(check-sat)
(pop 1)
(push 1)
(assert (not (>  z3v109 z3v85)))
(check-sat)
(pop 1)
(push 1)
(assert (not (>  z3v109 z3v86)))
(check-sat)
(pop 1)
(push 1)
(assert (not (>  z3v109 z3v87)))
(check-sat)
(pop 1)
(push 1)
(assert (not (>  z3v109 z3v88)))
(check-sat)
(pop 1)
(push 1)
(assert (not (>  z3v109 z3v91)))
(check-sat)
(pop 1)
(push 1)
(assert (not (>  z3v109 z3v92)))
(check-sat)
(pop 1)
(push 1)
(assert (not (>  z3v109 z3v93)))
(check-sat)
(pop 1)
(push 1)
(assert (not (>  z3v109 z3v94)))
(check-sat)
(pop 1)
(push 1)
(assert (not (>= z3v109 z3v83)))
(check-sat)
(pop 1)
(push 1)
(assert (not (>= z3v109 z3v84)))
(check-sat)
(pop 1)
(push 1)
(assert (not (>= z3v109 z3v110)))
(check-sat)
(pop 1)
(push 1)
(assert (not (>= z3v109 z3v85)))
(check-sat)
(pop 1)
(push 1)
(assert (not (>= z3v109 z3v86)))
(check-sat)
(pop 1)
(push 1)
(assert (not (>= z3v109 z3v87)))
(check-sat)
(pop 1)
(push 1)
(assert (not (>= z3v109 z3v88)))
(check-sat)
(pop 1)
(push 1)
(assert (not (>= z3v109 z3v91)))
(check-sat)
(pop 1)
(push 1)
(assert (not (>= z3v109 z3v92)))
(check-sat)
(pop 1)
(push 1)
(assert (not (>= z3v109 z3v93)))
(check-sat)
(pop 1)
(push 1)
(assert (not (>= z3v109 z3v94)))
(check-sat)
(pop 1)
(push 1)
(assert (not (<  z3v109 z3v83)))
(check-sat)
(pop 1)
(push 1)
(assert (not (<  z3v109 z3v84)))
(check-sat)
(pop 1)
(push 1)
(assert (not (<  z3v109 z3v110)))
(check-sat)
(pop 1)
(push 1)
(assert (not (<  z3v109 z3v85)))
(check-sat)
(pop 1)
(push 1)
(assert (not (<  z3v109 z3v86)))
(check-sat)
(pop 1)
(push 1)
(assert (not (<  z3v109 z3v87)))
(check-sat)
(pop 1)
(push 1)
(assert (not (<  z3v109 z3v88)))
(check-sat)
(pop 1)
(push 1)
(assert (not (<  z3v109 z3v91)))
(check-sat)
(pop 1)
(push 1)
(assert (not (<  z3v109 z3v92)))
(check-sat)
(pop 1)
(push 1)
(assert (not (<  z3v109 z3v93)))
(check-sat)
(pop 1)
(push 1)
(assert (not (<  z3v109 z3v94)))
(check-sat)
(pop 1)
(push 1)
(assert (not (= z3v109 z3v83)))
(check-sat)
(pop 1)
(push 1)
(assert (not (= z3v109 z3v84)))
(check-sat)
(pop 1)
(push 1)
(assert (not (= z3v109 z3v110)))
(check-sat)
(pop 1)
(push 1)
(assert (not (= z3v109 z3v85)))
(check-sat)
(pop 1)
(push 1)
(assert (not (= z3v109 z3v86)))
(check-sat)
(pop 1)
(push 1)
(assert (not (= z3v109 z3v87)))
(check-sat)
(pop 1)
(push 1)
(assert (not (= z3v109 z3v88)))
(check-sat)
(pop 1)
(push 1)
(assert (not (= z3v109 z3v91)))
(check-sat)
(pop 1)
(push 1)
(assert (not (= z3v109 z3v92)))
(check-sat)
(pop 1)
(push 1)
(assert (not (= z3v109 z3v93)))
(check-sat)
(pop 1)
(push 1)
(assert (not (= z3v109 z3v94)))
(check-sat)
(pop 1)
(push 1)
(assert (not (<= z3v109 z3v83)))
(check-sat)
(pop 1)
(push 1)
(assert (not (<= z3v109 z3v84)))
(check-sat)
(pop 1)
(push 1)
(assert (not (<= z3v109 z3v110)))
(check-sat)
(pop 1)
(push 1)
(assert (not (<= z3v109 z3v85)))
(check-sat)
(pop 1)
(push 1)
(assert (not (<= z3v109 z3v86)))
(check-sat)
(pop 1)
(push 1)
(assert (not (<= z3v109 z3v87)))
(check-sat)
(pop 1)
(push 1)
(assert (not (<= z3v109 z3v88)))
(check-sat)
(pop 1)
(push 1)
(assert (not (<= z3v109 z3v91)))
(check-sat)
(pop 1)
(push 1)
(assert (not (<= z3v109 z3v92)))
(check-sat)
(pop 1)
(push 1)
(assert (not (<= z3v109 z3v93)))
(check-sat)
(pop 1)
(push 1)
(assert (not (<= z3v109 z3v94)))
(check-sat)
(pop 1)
(push 1)
(assert (not (<= z3v109 z3v83)))
(check-sat)
(pop 1)
(push 1)
(assert (not (<= z3v109 z3v84)))
(check-sat)
(pop 1)
(push 1)
(assert (not (<= z3v109 z3v110)))
(check-sat)
(pop 1)
(push 1)
(assert (not (<= z3v109 z3v85)))
(check-sat)
(pop 1)
(push 1)
(assert (not (<= z3v109 z3v86)))
(check-sat)
(pop 1)
(push 1)
(assert (not (<= z3v109 z3v87)))
(check-sat)
(pop 1)
(push 1)
(assert (not (<= z3v109 z3v88)))
(check-sat)
(pop 1)
(push 1)
(assert (not (<= z3v109 z3v91)))
(check-sat)
(pop 1)
(push 1)
(assert (not (<= z3v109 z3v92)))
(check-sat)
(pop 1)
(push 1)
(assert (not (<= z3v109 z3v93)))
(check-sat)
(pop 1)
(push 1)
(assert (not (<= z3v109 z3v94)))
(check-sat)
(pop 1)
(push 1)
(assert (not (not (= z3v109 z3v83))))
(check-sat)
(pop 1)
(push 1)
(assert (not (not (= z3v109 z3v84))))
(check-sat)
(pop 1)
(push 1)
(assert (not (not (= z3v109 z3v110))))
(check-sat)
(pop 1)
(push 1)
(assert (not (not (= z3v109 z3v85))))
(check-sat)
(pop 1)
(push 1)
(assert (not (not (= z3v109 z3v86))))
(check-sat)
(pop 1)
(push 1)
(assert (not (not (= z3v109 z3v87))))
(check-sat)
(pop 1)
(push 1)
(assert (not (not (= z3v109 z3v88))))
(check-sat)
(pop 1)
(push 1)
(assert (not (not (= z3v109 z3v91))))
(check-sat)
(pop 1)
(push 1)
(assert (not (not (= z3v109 z3v92))))
(check-sat)
(pop 1)
(push 1)
(assert (not (not (= z3v109 z3v93))))
(check-sat)
(pop 1)
(push 1)
(assert (not (not (= z3v109 z3v94))))
(check-sat)
(pop 1)
(push 1)
(assert (not (= z3v109 z3v83)))
(check-sat)
(pop 1)
(push 1)
(assert (not (= z3v109 z3v84)))
(check-sat)
(pop 1)
(push 1)
(assert (not (= z3v109 z3v110)))
(check-sat)
(pop 1)
(push 1)
(assert (not (= z3v109 z3v85)))
(check-sat)
(pop 1)
(push 1)
(assert (not (= z3v109 z3v86)))
(check-sat)
(pop 1)
(push 1)
(assert (not (= z3v109 z3v87)))
(check-sat)
(pop 1)
(push 1)
(assert (not (= z3v109 z3v88)))
(check-sat)
(pop 1)
(push 1)
(assert (not (= z3v109 z3v91)))
(check-sat)
(pop 1)
(push 1)
(assert (not (= z3v109 z3v92)))
(check-sat)
(pop 1)
(push 1)
(assert (not (= z3v109 z3v93)))
(check-sat)
(pop 1)
(push 1)
(assert (not (= z3v109 z3v94)))
(check-sat)
(pop 1)
(push 1)
(assert (not (>= z3v109 z3v83)))
(check-sat)
(pop 1)
(push 1)
(assert (not (>= z3v109 z3v84)))
(check-sat)
(pop 1)
(push 1)
(assert (not (>= z3v109 z3v110)))
(check-sat)
(pop 1)
(push 1)
(assert (not (>= z3v109 z3v85)))
(check-sat)
(pop 1)
(push 1)
(assert (not (>= z3v109 z3v86)))
(check-sat)
(pop 1)
(push 1)
(assert (not (>= z3v109 z3v87)))
(check-sat)
(pop 1)
(push 1)
(assert (not (>= z3v109 z3v88)))
(check-sat)
(pop 1)
(push 1)
(assert (not (>= z3v109 z3v91)))
(check-sat)
(pop 1)
(push 1)
(assert (not (>= z3v109 z3v92)))
(check-sat)
(pop 1)
(push 1)
(assert (not (>= z3v109 z3v93)))
(check-sat)
(pop 1)
(push 1)
(assert (not (>= z3v109 z3v94)))
(check-sat)
(pop 1)
(push 1)
(assert (not (<= 0 z3v109)))
(check-sat)
(pop 1)
(push 1)
(assert (not (<  z3v109 100)))
(check-sat)
(pop 1)
(push 1)
(assert (not (>= z3v109 0)))
(check-sat)
(pop 1)
(push 1)
(assert (not (= z3v109 0)))
(check-sat)
(pop 1)
(push 1)
(assert (not (not (= z3v109 0))))
(check-sat)
(pop 1)
(push 1)
(assert (not (= (mod z3v109 2) 0)))
(check-sat)
(pop 1)
(pop 1)
(declare-fun z3v111 () Int)
(declare-fun z3v112 () Int)
(declare-fun z3v113 () Int)
(declare-fun z3v114 () Int)
(declare-fun z3v115 () Int)
(declare-fun z3v116 () Int)
(push 1)
(assert true)
(assert (= z3v116 z3v89))
(assert (and (not (= z3v111 0)) (= z3v111 z3v112) (= z3v113 z3v112) (= z3v113 z3v112) (= z3v113 z3v114) (not (= z3v113 0)) (<= 0 z3v85) (<  z3v85 100) (= (mod z3v85 2) 0) (= (mod z3v86 2) 0) (>= z3v87 0) (= z3v88 0) (not (= z3v114 0)) (= z3v115 z3v89) (= z3v91 0) (not (= z3v92 0)) (not (= z3v93 0)) (not (= z3v94 0)) (z3f81 z3v77) (= (z3f96 z3v95) z3v95) (= (z3f96 z3v97) z3v97) (not (z3f81 z3v78)) (= (z3f96 z3v98) z3v98)))
(push 1)
(assert (not (<  z3v116 z3v89)))
(check-sat)
(pop 1)
(push 1)
(assert (not (not (= z3v116 z3v89))))
(check-sat)
(pop 1)
(push 1)
(assert (not (>  z3v116 z3v89)))
(check-sat)
(pop 1)
(push 1)
(assert (not (>= z3v116 z3v89)))
(check-sat)
(pop 1)
(push 1)
(assert (not (<= z3v116 z3v89)))
(check-sat)
(pop 1)
(pop 1)
(declare-fun z3v117 () Int)
(declare-fun z3v118 () Int)
(declare-fun z3v119 () Int)
(declare-fun z3v120 () Int)
(declare-fun z3v121 () Int)
(declare-fun z3v122 () Int)
(push 1)
(assert true)
(assert (= z3v122 z3v89))
(assert (and (not (z3f81 z3v117)) (not (z3f81 z3v117)) (= z3v117 z3v118) (= (z3f81 z3v117) (<= z3v120 z3v119)) (= (z3f81 z3v118) (<= z3v120 z3v119)) (>= z3v119 0) (>= z3v120 0) (<= 0 z3v85) (<  z3v85 100) (= (mod z3v85 2) 0) (= (mod z3v86 2) 0) (>= z3v87 0) (= z3v88 0) (= z3v121 z3v89) (= z3v91 0) (not (= z3v92 0)) (not (= z3v93 0)) (not (= z3v94 0)) (z3f81 z3v77) (= (z3f96 z3v95) z3v95) (= (z3f96 z3v97) z3v97) (not (z3f81 z3v78)) (= (z3f96 z3v98) z3v98)))
(push 1)
(assert (not (<  z3v122 z3v89)))
(check-sat)
(pop 1)
(push 1)
(assert (not (not (= z3v122 z3v89))))
(check-sat)
(pop 1)
(push 1)
(assert (not (>  z3v122 z3v89)))
(check-sat)
(pop 1)
(push 1)
(assert (not (>= z3v122 z3v89)))
(check-sat)
(pop 1)
(push 1)
(assert (not (<= z3v122 z3v89)))
(check-sat)
(pop 1)
(pop 1)
(declare-fun z3v123 () Int)
(declare-fun z3f124 (Int) Int)
(declare-fun z3v125 () Int)
(declare-fun z3v126 () Int)
(declare-fun z3v127 () Int)
(declare-fun z3v128 () Int)
(push 1)
(assert true)
(assert (= z3v128 z3v123))
(assert (>= (z3f124 z3v128) 0))
(assert (and (>= (z3f124 z3v123) 0) (not (z3f81 z3v125)) (not (z3f81 z3v125)) (= z3v125 z3v126) (>= (z3f124 z3v127) 0) (= z3v127 z3v123) (>= (z3f124 z3v127) 0) (z3f81 z3v77) (= (z3f96 z3v95) z3v95) (= (z3f96 z3v97) z3v97) (not (z3f81 z3v78)) (= (z3f96 z3v98) z3v98)))
(push 1)
(assert (not false))
(check-sat)
(pop 1)
(pop 1)
(declare-fun z3v129 () Int)
(declare-fun z3v130 () Int)
(push 1)
(assert true)
(assert (= z3v130 1))
(assert (and (= z3v129 1) (z3f81 z3v77) (= (z3f96 z3v95) z3v95) (= (z3f96 z3v97) z3v97) (not (z3f81 z3v78)) (= (z3f96 z3v98) z3v98)))
(push 1)
(assert (not (= z3v130 0)))
(check-sat)
(pop 1)
(pop 1)
(declare-fun z3v131 () Int)
(declare-fun z3v132 () Int)
(push 1)
(assert true)
(assert (= z3v132 3))
(assert (and (= z3v88 0) (= z3v131 3) (z3f81 z3v77) (= (z3f96 z3v95) z3v95) (= (z3f96 z3v97) z3v97) (not (z3f81 z3v78)) (= (z3f96 z3v98) z3v98)))
(push 1)
(assert (not (not (= z3v132 0))))
(check-sat)
(pop 1)
(pop 1)
(declare-fun z3v133 () Int)
(declare-fun z3v134 () Int)
(push 1)
(assert true)
(assert (= z3v134 2))
(assert (and (= z3v88 0) (= z3v133 2) (not (= z3v93 0)) (z3f81 z3v77) (= (z3f96 z3v95) z3v95) (= (z3f96 z3v97) z3v97) (not (z3f81 z3v78)) (= (z3f96 z3v98) z3v98)))
(push 1)
(assert (not (not (= z3v134 0))))
(check-sat)
(pop 1)
(pop 1)
(declare-fun z3v135 () Int)
(declare-fun z3v136 () Int)
(push 1)
(assert true)
(assert (= z3v136 1))
(assert (and (= z3v88 0) (= z3v135 1) (not (= z3v92 0)) (not (= z3v93 0)) (z3f81 z3v77) (= (z3f96 z3v95) z3v95) (= (z3f96 z3v97) z3v97) (not (z3f81 z3v78)) (= (z3f96 z3v98) z3v98)))
(push 1)
(assert (not (not (= z3v136 0))))
(check-sat)
(pop 1)
(pop 1)
(declare-fun z3v137 () Int)
(declare-fun z3v138 () Int)
(push 1)
(assert true)
(assert (= z3v138 0))
(assert (and (= z3v88 0) (= z3v137 0) (not (= z3v92 0)) (not (= z3v93 0)) (not (= z3v94 0)) (z3f81 z3v77) (= (z3f96 z3v95) z3v95) (= (z3f96 z3v97) z3v97) (not (z3f81 z3v78)) (= (z3f96 z3v98) z3v98)))
(push 1)
(assert (not (= z3v138 0)))
(check-sat)
(pop 1)
(pop 1)
(declare-fun z3v139 () Int)
(declare-fun z3v140 () Int)
(push 1)
(assert true)
(assert (= z3v140 z3v91))
(assert (= z3v140 0))
(assert (and (= z3v88 0) (= z3v139 z3v91) (= z3v139 0) (= z3v91 0) (not (= z3v92 0)) (not (= z3v93 0)) (not (= z3v94 0)) (z3f81 z3v77) (= (z3f96 z3v95) z3v95) (= (z3f96 z3v97) z3v97) (not (z3f81 z3v78)) (= (z3f96 z3v98) z3v98)))
(push 1)
(assert (not (>= z3v140 0)))
(check-sat)
(pop 1)
(pop 1)
(declare-fun z3v141 () Int)
(declare-fun z3v142 () Int)
(push 1)
(assert true)
(assert (= z3v142 z3v91))
(assert (= z3v142 0))
(assert (and (>= z3v87 0) (= z3v88 0) (= z3v141 z3v91) (= z3v141 0) (= z3v91 0) (not (= z3v92 0)) (not (= z3v93 0)) (not (= z3v94 0)) (z3f81 z3v77) (= (z3f96 z3v95) z3v95) (= (z3f96 z3v97) z3v97) (not (z3f81 z3v78)) (= (z3f96 z3v98) z3v98)))
(push 1)
(assert (not (= (mod z3v142 2) 0)))
(check-sat)
(pop 1)
(pop 1)
(declare-fun z3v143 () Int)
(declare-fun z3v144 () Int)
(push 1)
(assert true)
(assert (= z3v144 z3v91))
(assert (= z3v144 0))
(assert (and (= (mod z3v86 2) 0) (>= z3v87 0) (= z3v88 0) (= z3v143 z3v91) (= z3v143 0) (= z3v91 0) (not (= z3v92 0)) (not (= z3v93 0)) (not (= z3v94 0)) (z3f81 z3v77) (= (z3f96 z3v95) z3v95) (= (z3f96 z3v97) z3v97) (not (z3f81 z3v78)) (= (z3f96 z3v98) z3v98)))
(push 1)
(assert (not (and (= (mod z3v144 2) 0) (<  z3v144 100) (<= 0 z3v144))))
(check-sat)
(pop 1)
(pop 1)
(declare-fun z3v145 () Int)
(declare-fun z3v146 () Int)
(declare-fun z3v147 () Int)
(push 1)
(assert true)
(assert (= z3v147 z3v114))
(assert (not (= z3v147 0)))
(assert (and (not (= z3v111 0)) (= z3v111 z3v112) (= z3v113 z3v112) (= z3v113 z3v112) (= z3v113 z3v114) (not (= z3v113 0)) (<= 0 z3v85) (<  z3v85 100) (= (mod z3v85 2) 0) (= (mod z3v86 2) 0) (>= z3v87 0) (= z3v88 0) (not (= z3v114 0)) (= z3v146 z3v114) (not (= z3v146 0)) (= z3v91 0) (not (= z3v92 0)) (not (= z3v93 0)) (not (= z3v94 0)) (z3f81 z3v77) (= (z3f96 z3v95) z3v95) (= (z3f96 z3v97) z3v97) (not (z3f81 z3v78)) (= (z3f96 z3v98) z3v98)))
(assert (= z3v145 z3v89))
(push 1)
(assert (not (not (= z3v147 0))))
(check-sat)
(pop 1)
(pop 1)
(declare-fun z3v148 () Int)
(push 1)
(assert true)
(assert (= z3v148 z3v89))
(assert (and (not (= z3v111 0)) (= z3v111 z3v112) (= z3v113 z3v112) (= z3v113 z3v112) (= z3v113 z3v114) (not (= z3v113 0)) (<= 0 z3v85) (<  z3v85 100) (= (mod z3v85 2) 0) (= (mod z3v86 2) 0) (>= z3v87 0) (= z3v88 0) (not (= z3v114 0)) (= z3v115 z3v89) (= z3v91 0) (not (= z3v92 0)) (not (= z3v93 0)) (not (= z3v94 0)) (z3f81 z3v77) (= (z3f96 z3v95) z3v95) (= (z3f96 z3v97) z3v97) (not (z3f81 z3v78)) (= (z3f96 z3v98) z3v98)))
(push 1)
(assert (not (= z3v148 z3v89)))
(check-sat)
(pop 1)
(pop 1)
(declare-fun z3v149 () Int)
(declare-fun z3v150 () Int)
(declare-fun z3v151 () Int)
(push 1)
(assert true)
(assert (= z3v151 z3v149))
(assert (>= (z3f124 z3v151) 0))
(assert (and (>= (z3f124 z3v149) 0) (= z3v111 0) (= z3v111 z3v112) (= z3v113 z3v112) (= z3v113 z3v112) (= z3v113 z3v114) (not (= z3v113 0)) (<= 0 z3v85) (<  z3v85 100) (= (mod z3v85 2) 0) (= (mod z3v86 2) 0) (>= z3v87 0) (= z3v88 0) (not (= z3v114 0)) (>= (z3f124 z3v150) 0) (= z3v150 z3v149) (>= (z3f124 z3v150) 0) (= z3v91 0) (not (= z3v92 0)) (not (= z3v93 0)) (not (= z3v94 0)) (z3f81 z3v77) (= (z3f96 z3v95) z3v95) (= (z3f96 z3v97) z3v97) (not (z3f81 z3v78)) (= (z3f96 z3v98) z3v98)))
(push 1)
(assert (not false))
(check-sat)
(pop 1)
(pop 1)
(declare-fun z3v152 () Int)
(declare-fun z3v153 () Int)
(declare-fun z3v154 () Int)
(declare-fun z3v155 () Int)
(declare-fun z3v156 () Int)
(declare-fun z3v157 () Int)
(push 1)
(assert true)
(assert (= z3v157 z3v152))
(assert (= z3v157 2))
(assert (and (= z3v152 2) (= z3v155 (+ z3v154 z3v153)) (<= 0 z3v85) (<  z3v85 100) (= (mod z3v85 2) 0) (= (mod z3v86 2) 0) (>= z3v87 0) (= z3v88 0) (= z3v156 z3v152) (= z3v156 2) (= z3v91 0) (not (= z3v92 0)) (not (= z3v93 0)) (not (= z3v94 0)) (z3f81 z3v77) (= (z3f96 z3v95) z3v95) (= (z3f96 z3v97) z3v97) (not (z3f81 z3v78)) (= (z3f96 z3v98) z3v98)))
(push 1)
(assert (not (not (= z3v157 0))))
(check-sat)
(pop 1)
(pop 1)
(declare-fun z3v158 () Int)
(declare-fun z3v159 () Int)
(declare-fun z3v160 () Int)
(declare-fun z3v161 () Int)
(declare-fun z3v162 () Int)
(declare-fun z3v163 () Int)
(declare-fun z3v164 () Int)
(declare-fun z3v165 () Int)
(push 1)
(assert true)
(assert (= z3v165 z3v158))
(assert (= z3v165 3))
(assert (and (= z3v158 3) (= z3v161 (+ z3v160 z3v159)) (= z3v160 (+ z3v163 z3v162)) (<= 0 z3v85) (<  z3v85 100) (= (mod z3v85 2) 0) (= (mod z3v86 2) 0) (>= z3v87 0) (= z3v88 0) (= z3v164 z3v158) (= z3v164 3) (= z3v91 0) (not (= z3v92 0)) (not (= z3v93 0)) (not (= z3v94 0)) (z3f81 z3v77) (= (z3f96 z3v95) z3v95) (= (z3f96 z3v97) z3v97) (not (z3f81 z3v78)) (= (z3f96 z3v98) z3v98)))
(push 1)
(assert (not (not (= z3v165 0))))
(check-sat)
(pop 1)
(pop 1)
(declare-fun z3v166 () Int)
(declare-fun z3v167 () Int)
(declare-fun z3v168 () Int)
(declare-fun z3v169 () Int)
(push 1)
(assert true)
(assert (= z3v169 z3v167))
(assert (= z3v169 (z3f124 z3v166)))
(assert (and (>= (z3f124 z3v166) 0) (= z3v167 (z3f124 z3v166)) (<= 0 z3v85) (<  z3v85 100) (= (mod z3v85 2) 0) (= (mod z3v86 2) 0) (>= z3v87 0) (= z3v88 0) (= z3v168 z3v167) (= z3v168 (z3f124 z3v166)) (= z3v91 0) (not (= z3v92 0)) (not (= z3v93 0)) (not (= z3v94 0)) (z3f81 z3v77) (= (z3f96 z3v95) z3v95) (= (z3f96 z3v97) z3v97) (not (z3f81 z3v78)) (= (z3f96 z3v98) z3v98)))
(push 1)
(assert (not (not (= z3v169 0))))
(check-sat)
(pop 1)
(pop 1)
(declare-fun z3v170 () Int)
(declare-fun z3v171 () Int)
(declare-fun z3v172 () Int)
(push 1)
(assert true)
(assert (= z3v172 z3v103))
(assert (and (not (= z3v100 0)) (= z3v100 z3v101) (= z3v102 z3v101) (= z3v102 z3v101) (= z3v102 z3v103) (<= 0 z3v85) (<  z3v85 100) (= (mod z3v85 2) 0) (= (mod z3v86 2) 0) (>= z3v87 0) (= z3v88 0) (= z3v171 z3v103) (= z3v91 0) (not (= z3v92 0)) (not (= z3v93 0)) (not (= z3v94 0)) (z3f81 z3v77) (= (z3f96 z3v95) z3v95) (= (z3f96 z3v97) z3v97) (not (z3f81 z3v78)) (= (z3f96 z3v98) z3v98)))
(assert (= z3v170 z3v89))
(push 1)
(assert (not (not (= z3v172 0))))
(check-sat)
(pop 1)
(pop 1)
(declare-fun z3v173 () Int)
(push 1)
(assert true)
(assert (= z3v173 z3v89))
(assert (and (not (= z3v100 0)) (= z3v100 z3v101) (= z3v102 z3v101) (= z3v102 z3v101) (= z3v102 z3v103) (<= 0 z3v85) (<  z3v85 100) (= (mod z3v85 2) 0) (= (mod z3v86 2) 0) (>= z3v87 0) (= z3v88 0) (= z3v104 z3v89) (= z3v91 0) (not (= z3v92 0)) (not (= z3v93 0)) (not (= z3v94 0)) (z3f81 z3v77) (= (z3f96 z3v95) z3v95) (= (z3f96 z3v97) z3v97) (not (z3f81 z3v78)) (= (z3f96 z3v98) z3v98)))
(push 1)
(assert (not (= z3v173 z3v89)))
(check-sat)
(pop 1)
(pop 1)
(declare-fun z3v174 () Int)
(declare-fun z3v175 () Int)
(declare-fun z3v176 () Int)
(push 1)
(assert true)
(assert (= z3v176 z3v174))
(assert (>= (z3f124 z3v176) 0))
(assert (and (>= (z3f124 z3v174) 0) (= z3v100 0) (= z3v100 z3v101) (= z3v102 z3v101) (= z3v102 z3v101) (= z3v102 z3v103) (<= 0 z3v85) (<  z3v85 100) (= (mod z3v85 2) 0) (= (mod z3v86 2) 0) (>= z3v87 0) (= z3v88 0) (>= (z3f124 z3v175) 0) (= z3v175 z3v174) (>= (z3f124 z3v175) 0) (= z3v91 0) (not (= z3v92 0)) (not (= z3v93 0)) (not (= z3v94 0)) (z3f81 z3v77) (= (z3f96 z3v95) z3v95) (= (z3f96 z3v97) z3v97) (not (z3f81 z3v78)) (= (z3f96 z3v98) z3v98)))
(push 1)
(assert (not false))
(check-sat)
(pop 1)
(pop 1)
(declare-fun z3v177 () Int)
(declare-fun z3v178 () Int)
(declare-fun z3v179 () Int)
(declare-fun z3v180 () Int)
(declare-fun z3v181 () Int)
(declare-fun z3v182 () Int)
(declare-fun z3v183 () Int)
(declare-fun z3v184 () Int)
(declare-fun z3v185 () Int)
(push 1)
(assert true)
(assert (= z3v185 z3v177))
(assert (>= (z3f124 z3v185) 0))
(assert (and (>= (z3f124 z3v177) 0) (z3f81 z3v178) (z3f81 z3v178) (= z3v178 z3v179) (= (z3f81 z3v178) (= z3v181 z3v180)) (= (z3f81 z3v179) (= z3v181 z3v180)) (= z3v180 2) (= z3v181 (+ z3v183 z3v182)) (= z3v182 1) (= z3v183 1) (<= 0 z3v85) (<  z3v85 100) (= (mod z3v85 2) 0) (= (mod z3v86 2) 0) (>= z3v87 0) (= z3v88 0) (>= (z3f124 z3v184) 0) (= z3v184 z3v177) (>= (z3f124 z3v184) 0) (= z3v91 0) (not (= z3v92 0)) (not (= z3v93 0)) (not (= z3v94 0)) (z3f81 z3v77) (= (z3f96 z3v95) z3v95) (= (z3f96 z3v97) z3v97) (not (z3f81 z3v78)) (= (z3f96 z3v98) z3v98)))
(push 1)
(assert (not false))
(check-sat)
(pop 1)
(pop 1)
(declare-fun z3v186 () Int)
(declare-fun z3v187 () Int)
(declare-fun z3v188 () Int)
(declare-fun z3v189 () Int)
(declare-fun z3v190 () Int)
(declare-fun z3v191 () Int)
(declare-fun z3v192 () Int)
(declare-fun z3v193 () Int)
(declare-fun z3v194 () Int)
(push 1)
(assert true)
(assert (= z3v194 z3v186))
(assert (>= (z3f124 z3v194) 0))
(assert (and (>= (z3f124 z3v186) 0) (z3f81 z3v187) (z3f81 z3v187) (= z3v187 z3v188) (= (z3f81 z3v187) (= z3v190 z3v189)) (= (z3f81 z3v188) (= z3v190 z3v189)) (= z3v189 3) (= z3v190 (+ z3v192 z3v191)) (= z3v191 1) (= z3v192 1) (<= 0 z3v85) (<  z3v85 100) (= (mod z3v85 2) 0) (= (mod z3v86 2) 0) (>= z3v87 0) (= z3v88 0) (>= (z3f124 z3v193) 0) (= z3v193 z3v186) (>= (z3f124 z3v193) 0) (= z3v91 0) (not (= z3v92 0)) (not (= z3v93 0)) (not (= z3v94 0)) (z3f81 z3v77) (= (z3f96 z3v95) z3v95) (= (z3f96 z3v97) z3v97) (not (z3f81 z3v78)) (= (z3f96 z3v98) z3v98)))
(push 1)
(assert (not false))
(check-sat)
(pop 1)
(pop 1)
(declare-fun z3v195 () Int)
(push 1)
(assert true)
(assert (= z3v195 (- z3v107 z3v83)))
(assert (and (= z3v107 0) (not (z3f81 z3v80)) (not (z3f81 z3v80)) (= z3v80 z3v82) (= (z3f81 z3v80) (<  z3v84 z3v83)) (= (z3f81 z3v82) (<  z3v84 z3v83)) (= z3v84 0) (<= 0 z3v85) (<  z3v85 100) (= (mod z3v85 2) 0) (= (mod z3v86 2) 0) (>= z3v87 0) (= z3v88 0) (= z3v108 (- z3v107 z3v83)) (= z3v91 0) (not (= z3v92 0)) (not (= z3v93 0)) (not (= z3v94 0)) (z3f81 z3v77) (= (z3f96 z3v95) z3v95) (= (z3f96 z3v97) z3v97) (not (z3f81 z3v78)) (= (z3f96 z3v98) z3v98)))
(assert (= z3v106 z3v89))
(push 1)
(assert (not (and (>= z3v195 0) (>= z3v195 z3v83) (>= z3v195 z3v84) (>= z3v195 z3v88) (>= z3v195 z3v91) (>= z3v195 z3v83) (>= z3v195 z3v84) (>= z3v195 z3v88) (>= z3v195 z3v91) (>= z3v195 0))))
(check-sat)
(pop 1)
(pop 1)
(declare-fun z3v196 () Int)
(push 1)
(assert true)
(assert (= z3v196 z3v89))
(assert (and (not (z3f81 z3v80)) (not (z3f81 z3v80)) (= z3v80 z3v82) (= (z3f81 z3v80) (<  z3v84 z3v83)) (= (z3f81 z3v82) (<  z3v84 z3v83)) (= z3v84 0) (<= 0 z3v85) (<  z3v85 100) (= (mod z3v85 2) 0) (= (mod z3v86 2) 0) (>= z3v87 0) (= z3v88 0) (= z3v90 z3v89) (= z3v91 0) (not (= z3v92 0)) (not (= z3v93 0)) (not (= z3v94 0)) (z3f81 z3v77) (= (z3f96 z3v95) z3v95) (= (z3f96 z3v97) z3v97) (not (z3f81 z3v78)) (= (z3f96 z3v98) z3v98)))
(push 1)
(assert (not (= z3v196 z3v89)))
(check-sat)
(pop 1)
(pop 1)
(declare-fun z3v197 () Int)
(declare-fun z3v198 () Int)
(push 1)
(assert true)
(assert (>= z3v198 0))
(assert (>= z3v198 z3v91))
(assert (>= z3v198 z3v88))
(assert (>= z3v198 z3v84))
(assert (>= z3v198 z3v83))
(assert (>= z3v198 z3v91))
(assert (>= z3v198 z3v88))
(assert (>= z3v198 z3v84))
(assert (>= z3v198 z3v83))
(assert (>= z3v198 0))
(assert (and (not (z3f81 z3v80)) (not (z3f81 z3v80)) (= z3v80 z3v82) (= (z3f81 z3v80) (<  z3v84 z3v83)) (= (z3f81 z3v82) (<  z3v84 z3v83)) (= z3v84 0) (<= 0 z3v85) (<  z3v85 100) (= (mod z3v85 2) 0) (= (mod z3v86 2) 0) (>= z3v87 0) (= z3v88 0) (= z3v91 0) (not (= z3v92 0)) (not (= z3v93 0)) (not (= z3v94 0)) (z3f81 z3v77) (= (z3f96 z3v95) z3v95) (= (z3f96 z3v97) z3v97) (not (z3f81 z3v78)) (= (z3f96 z3v98) z3v98)))
(assert (>= z3v197 0))
(assert (>= z3v197 z3v91))
(assert (>= z3v197 z3v88))
(assert (>= z3v197 z3v84))
(assert (>= z3v197 z3v83))
(assert (>= z3v197 z3v91))
(assert (>= z3v197 z3v88))
(assert (>= z3v197 z3v84))
(assert (>= z3v197 z3v83))
(assert (>= z3v197 0))
(push 1)
(assert (not (>= z3v198 0)))
(check-sat)
(pop 1)
(pop 1)
(declare-fun z3v199 () Int)
(declare-fun z3v200 () Int)
(push 1)
(assert true)
(assert (= z3v200 z3v83))
(assert (and (z3f81 z3v80) (z3f81 z3v80) (= z3v80 z3v82) (= (z3f81 z3v80) (<  z3v84 z3v83)) (= (z3f81 z3v82) (<  z3v84 z3v83)) (= z3v84 0) (<= 0 z3v85) (<  z3v85 100) (= (mod z3v85 2) 0) (= (mod z3v86 2) 0) (>= z3v87 0) (= z3v88 0) (= z3v199 z3v83) (= z3v91 0) (not (= z3v92 0)) (not (= z3v93 0)) (not (= z3v94 0)) (z3f81 z3v77) (= (z3f96 z3v95) z3v95) (= (z3f96 z3v97) z3v97) (not (z3f81 z3v78)) (= (z3f96 z3v98) z3v98)))
(push 1)
(assert (not (>= z3v200 0)))
(check-sat)
(pop 1)
(pop 1)
(declare-fun z3v201 () Int)
(declare-fun z3v202 () Int)
(declare-fun z3v203 () Int)
(push 1)
(assert true)
(assert (= z3v203 z3v120))
(assert (>= z3v203 0))
(assert (and (not (z3f81 z3v117)) (not (z3f81 z3v117)) (= z3v117 z3v118) (= (z3f81 z3v117) (<= z3v120 z3v119)) (= (z3f81 z3v118) (<= z3v120 z3v119)) (>= z3v119 0) (>= z3v120 0) (<= 0 z3v85) (<  z3v85 100) (= (mod z3v85 2) 0) (= (mod z3v86 2) 0) (>= z3v87 0) (= z3v88 0) (= z3v202 z3v120) (>= z3v202 0) (= z3v91 0) (not (= z3v92 0)) (not (= z3v93 0)) (not (= z3v94 0)) (z3f81 z3v77) (= (z3f96 z3v95) z3v95) (= (z3f96 z3v97) z3v97) (not (z3f81 z3v78)) (= (z3f96 z3v98) z3v98)))
(assert (= z3v201 z3v89))
(push 1)
(assert (not (not (= z3v203 0))))
(check-sat)
(pop 1)
(pop 1)
(declare-fun z3v204 () Int)
(push 1)
(assert true)
(assert (= z3v204 z3v89))
(assert (and (not (z3f81 z3v117)) (not (z3f81 z3v117)) (= z3v117 z3v118) (= (z3f81 z3v117) (<= z3v120 z3v119)) (= (z3f81 z3v118) (<= z3v120 z3v119)) (>= z3v119 0) (>= z3v120 0) (<= 0 z3v85) (<  z3v85 100) (= (mod z3v85 2) 0) (= (mod z3v86 2) 0) (>= z3v87 0) (= z3v88 0) (= z3v121 z3v89) (= z3v91 0) (not (= z3v92 0)) (not (= z3v93 0)) (not (= z3v94 0)) (z3f81 z3v77) (= (z3f96 z3v95) z3v95) (= (z3f96 z3v97) z3v97) (not (z3f81 z3v78)) (= (z3f96 z3v98) z3v98)))
(push 1)
(assert (not (= z3v204 z3v89)))
(check-sat)
(pop 1)
(pop 1)
(declare-fun z3v205 () Int)
(declare-fun z3v206 () Int)
(declare-fun z3v207 () Int)
(declare-fun z3v208 () Int)
(push 1)
(assert true)
(assert (= (z3f81 z3v208) (>  z3v206 z3v205)))
(assert (and (= z3v205 0) (<= 0 z3v85) (<  z3v85 100) (= (mod z3v85 2) 0) (= (mod z3v86 2) 0) (>= z3v87 0) (= z3v88 0) (= (z3f81 z3v207) (>  z3v206 z3v205)) (= z3v91 0) (not (= z3v92 0)) (not (= z3v93 0)) (not (= z3v94 0)) (z3f81 z3v77) (= (z3f96 z3v95) z3v95) (= (z3f96 z3v97) z3v97) (not (z3f81 z3v78)) (= (z3f96 z3v98) z3v98)))
(push 1)
(assert (not (= (z3f81 z3v208) (>  z3v206 0))))
(check-sat)
(pop 1)
(pop 1)
(declare-fun z3v209 () Int)
(declare-fun z3v210 () Int)
(declare-fun z3v211 () Int)
(declare-fun z3v212 () Int)
(declare-fun z3v213 () Int)
(declare-fun z3v214 () Int)
(push 1)
(assert true)
(assert (= z3v214 z3v212))
(assert (and (>= (z3f124 z3v209) 0) (z3f81 z3v210) (z3f81 z3v210) (= z3v210 z3v211) (= (z3f81 z3v210) (>  z3v212 0)) (= (z3f81 z3v211) (>  z3v212 0)) (<= 0 z3v85) (<  z3v85 100) (= (mod z3v85 2) 0) (= (mod z3v86 2) 0) (>= z3v87 0) (= z3v88 0) (= z3v213 z3v212) (= z3v91 0) (not (= z3v92 0)) (not (= z3v93 0)) (not (= z3v94 0)) (z3f81 z3v77) (= (z3f96 z3v95) z3v95) (= (z3f96 z3v97) z3v97) (not (z3f81 z3v78)) (= (z3f96 z3v98) z3v98)))
(push 1)
(assert (not (not (= z3v214 0))))
(check-sat)
(pop 1)
(pop 1)
